20
0 1 0.51 0.33
0 2 0.84 0.34
0 3 0.68 0.06
0 4 0.66 0.37
0 5 0.64 0.29
0 6 0.64 0.14
0 7 0.73 0.17
0 8 0.58 0.28
0 9 0.78 0.33
0 10 0.63 0.26
0 11 0.44 0.3
0 12 0.62 0.37
0 13 0.55 0.22
0 14 0.55 0.25
0 15 0.56 0.18
0 16 0.56 0.29
0 17 0.6 0.32
0 18 0.83 0.38
0 19 0.28 0.12
1 2 0.76 0.48
1 3 0.72 0.39
1 4 0.86 0.44
1 5 0.71 0.48
1 6 0.57 0.28
1 7 0.35 0.24
1 8 0.36 0.34
1 9 0.56 0.09
1 10 0.76 0.33
1 11 0.5 0.28
1 12 0.63 0.35
1 13 0.48 0.2
1 14 0.86 0.24
1 15 0.39 0.33
1 16 0.25 0.21
1 17 0.5 0.35
1 18 0.66 0.44
1 19 0.66 0.35
2 3 0.78 0.4
2 4 0.44 0.08
2 5 0.64 0.27
2 6 0.62 0.2
2 7 0.42 0.25
2 8 0.66 0.2
2 9 0.66 0.39
2 10 0.74 0.19
2 11 0.83 0.36
2 12 0.58 0.42
2 13 0.78 0.29
2 14 0.76 0.33
2 15 0.7 0.32
2 16 0.74 0.38
2 17 0.4 0.25
2 18 0.89 0.3
2 19 0.72 0.33
3 4 0.58 0.43
3 5 0.84 0.35
3 6 0.68 0.2
3 7 0.58 0.16
3 8 0.54 0.22
3 9 0.56 0.39
3 10 0.35 0.32
3 11 0.61 0.36
3 12 0.38 0.34
3 13 0.58 0.28
3 14 0.75 0.24
3 15 0.34 0.24
3 16 0.58 0.35
3 17 0.4 0.26
3 18 0.72 0.32
3 19 0.55 0.18
4 5 0.3 0.19
4 6 0.94 0.28
4 7 0.78 0.33
4 8 0.51 0.28
4 9 0.62 0.35
4 10 0.42 0.11
4 11 0.66 0.44
4 12 0.42 0.38
4 13 0.62 0.29
4 14 0.61 0.3
4 15 0.75 0.4
4 16 0.72 0.42
4 17 0.64 0.33
4 18 0.73 0.38
4 19 0.64 0.25
5 6 0.72 0.43
5 7 0.48 0.36
5 8 0.72 0.42
5 9 0.68 0.39
5 10 0.5 0.19
5 11 0.52 0.42
5 12 0.72 0.43
5 13 0.58 0.28
5 14 0.64 0.28
5 15 0.56 0.41
5 16 0.46 0.29
5 17 0.69 0.26
5 18 0.51 0.32
5 19 0.53 0.33
6 7 0.24 0.11
6 8 0.52 0.16
6 9 0.68 0.19
6 10 0.83 0.36
6 11 0.43 0.16
6 12 0.65 0.37
6 13 0.74 0.3
6 14 0.74 0.19
6 15 0.34 0.12
6 16 0.32 0.18
6 17 0.53 0.23
6 18 0.56 0.26
6 19 0.5 0.26
7 8 0.71 0.27
7 9 0.44 0.23
7 10 0.59 0.27
7 11 0.67 0.27
7 12 0.42 0.26
7 13 0.54 0.34
7 14 0.66 0.08
7 15 0.47 0.23
7 16 0.56 0.29
7 17 0.29 0.24
7 18 0.59 0.37
7 19 0.45 0.24
8 9 0.82 0.35
8 10 0.5 0.24
8 11 0.71 0.32
8 12 0.68 0.25
8 13 0.63 0.4
8 14 0.88 0.35
8 15 0.67 0.27
8 16 0.61 0.34
8 17 0.49 0.39
8 18 0.38 0.1
8 19 0.66 0.38
9 10 0.46 0.24
9 11 0.92 0.22
9 12 0.49 0.26
9 13 0.29 0.11
9 14 0.4 0.15
9 15 0.88 0.31
9 16 0.75 0.3
9 17 0.53 0.26
9 18 0.52 0.41
9 19 0.56 0.29
10 11 0.53 0.46
10 12 0.73 0.33
10 13 0.61 0.18
10 14 0.4 0.19
10 15 0.69 0.43
10 16 0.7 0.31
10 17 0.42 0.28
10 18 0.57 0.34
10 19 0.4 0.14
11 12 0.88 0.45
11 13 0.68 0.33
11 14 0.93 0.35
11 15 0.75 0.28
11 16 0.26 0.19
11 17 0.64 0.39
11 18 0.76 0.3
11 19 0.67 0.36
12 13 0.2 0.15
12 14 0.74 0.18
12 15 0.72 0.35
12 16 0.62 0.32
12 17 0.71 0.42
12 18 0.64 0.15
12 19 0.47 0.33
13 14 0.54 0.26
13 15 0.76 0.36
13 16 0.58 0.24
13 17 0.53 0.37
13 18 0.74 0.3
13 19 0.27 0.18
14 15 0.76 0.24
14 16 0.68 0.36
14 17 0.6 0.24
14 18 0.78 0.33
14 19 0.27 0.26
15 16 0.49 0.12
15 17 0.74 0.35
15 18 0.8 0.2
15 19 0.79 0.29
16 17 0.57 0.35
16 18 0.6 0.32
16 19 0.41 0.17
17 18 0.62 0.31
17 19 0.72 0.42
18 19 0.64 0.35
